
Gurobi 11.0.3 (linux64) logging started Fri Nov 22 14:30:24 2024

Set parameter LogFile to value "/home/yihong/Coding/OR_SUC/SUC_results_bigM100000_thread4/case24_ieee_rts_theta0.5_epsilon0.025_gurobi_seed1050000_num_gen100_N_WDR100_load_scaling_factor1_exact_T12quadra_cost.txt"
Set parameter TimeLimit to value 3600
Gurobi Optimizer version 11.0.3 build v11.0.3rc0 (linux64 - "Ubuntu 20.04.6 LTS")

CPU model: AMD EPYC 7532 32-Core Processor, instruction set [SSE2|AVX|AVX2]
Thread count: 64 physical cores, 128 logical processors, using up to 4 threads

Optimize a model with 25823 rows, 15081 columns and 355770 nonzeros
Model fingerprint: 0x5e832607
Model has 1200 quadratic constraints
Variable types: 13781 continuous, 1300 integer (1300 binary)
Coefficient statistics:
  Matrix range     [2e-04, 1e+05]
  QMatrix range    [2e-03, 8e-03]
  QLMatrix range   [7e-02, 6e+01]
  Objective range  [1e+00, 1e+00]
  Bounds range     [1e+00, 1e+00]
  RHS range        [1e+00, 1e+05]
Presolve removed 21025 rows and 6657 columns
Presolve time: 0.11s
Presolved: 4798 rows, 8424 columns, 28753 nonzeros
Presolved model has 1200 quadratic constraint(s)
Variable types: 7184 continuous, 1240 integer (1240 binary)

Root relaxation: objective 3.542311e+04, 4063 iterations, 0.07 seconds (0.10 work units)

    Nodes    |    Current Node    |     Objective Bounds      |     Work
 Expl Unexpl |  Obj  Depth IntInf | Incumbent    BestBd   Gap | It/Node Time

     0     0 35423.1115    0   15          - 35423.1115      -     -    0s
     0     0 149721.895    0  395          - 149721.895      -     -    0s
     0     0 280398.704    0  209          - 280398.704      -     -    0s
     0     0 280404.681    0  175          - 280404.681      -     -    0s
     0     0 280738.572    0  134          - 280738.572      -     -    0s
     0     0 280742.277    0  134          - 280742.277      -     -    0s
     0     0 280769.953    0  132          - 280769.953      -     -    0s
     0     0 280769.953    0  132          - 280769.953      -     -    0s
     0     2 280769.953    0  132          - 280769.953      -     -    0s
H  240   316                    280899.11991 280773.320  0.04%  13.8    1s
*  240   316              88    280899.11991 280773.320  0.04%  13.8    1s

Cutting planes:
  Gomory: 33
  Implied bound: 273
  MIR: 51
  Flow cover: 91
  RLT: 8

Explored 335 nodes (15149 simplex iterations) in 2.35 seconds (3.23 work units)
Thread count was 4 (of 128 available processors)

Solution count 2: 280899 280899 

Optimal solution found (tolerance 1.00e-03)
Best objective 2.808991190442e+05, best bound 2.807733195970e+05, gap 0.0448%
